(set-logic QF_S)
(declare-fun T_12 () Bool)
(declare-fun T_13 () Bool)
(declare-fun T_SELECT_4 () Bool)
(declare-fun T_SELECT_5 () Bool)
(declare-fun T_c () Bool)
(declare-fun T_e () Bool)
(declare-fun T_f () Bool)
(declare-fun I0_23 () Int)
(declare-fun I1_23 () Int)
(declare-fun I2_23 () Int)
(declare-fun PCTEMP_LHS_4 () Int)
(declare-fun PCTEMP_LHS_5 () Int)
(declare-fun T_10 () Int)
(declare-fun NEW_DGNode_655 () String)
(declare-fun NEW_DGNode_659 () String)
(declare-fun NEW_DGNode_663 () String)
(declare-fun NEW_DGNode_667 () String)
(declare-fun NEW_DGNode_671 () String)
(declare-fun NEW_DGNode_675 () String)
(declare-fun PCTEMP_LHS_6 () String)
(declare-fun T_da () String)
(declare-fun T_db () String)
(declare-fun T_dc () String)
(declare-fun T_dd () String)
(declare-fun T_de () String)
(declare-fun T_df () String)
(assert (= T_df (str.++ T_de NEW_DGNode_675)))
(assert (= T_de (str.++ T_dd NEW_DGNode_671)))
(assert (= T_dd (str.++ T_dc NEW_DGNode_667)))
(assert (= T_dc (str.++ T_db NEW_DGNode_663)))
(assert (= T_db (str.++ T_da NEW_DGNode_659)))
(assert (= T_da (str.++ NEW_DGNode_655 PCTEMP_LHS_6)))
(assert (= NEW_DGNode_655 "__utmb="))
(assert (= PCTEMP_LHS_6 "-"))
(assert (= NEW_DGNode_659 ";"))
(assert (= NEW_DGNode_663 "/"))
(assert (= NEW_DGNode_667 ";"))
(assert (= NEW_DGNode_671 ""))
(assert (= NEW_DGNode_675 ""))
(assert (= T_SELECT_5 (not (= PCTEMP_LHS_5 (- 1)))))
(assert T_f)
(assert (= T_f (not T_e)))
(assert (= T_e (< PCTEMP_LHS_5 0)))
(assert (= T_SELECT_4 (not (= PCTEMP_LHS_4 (- 1)))))
(assert T_c)
(assert (= T_c (< (- 1) PCTEMP_LHS_4)))
(assert (= T_10 (+ PCTEMP_LHS_4 7)))
(assert (>= T_10 0))
(assert (>= PCTEMP_LHS_5 T_10))
(assert (= I2_23 I1_23))
(assert (<= PCTEMP_LHS_5 I1_23))
(assert (= I0_23 (- PCTEMP_LHS_5 T_10)))
(assert (= I0_23 (str.len PCTEMP_LHS_6))) ; len 0
(assert T_12)
(assert T_13)
(assert (= T_13 (not T_12)))
(check-sat)
